735,512
586,219
858,434
363,724
1166,563
910,91
729,371
356,355
996,177
536,301
727,264
584,336
801,406
894,514
624,424
1166,249
804,237
735,300
269,705
237,476
721,486
977,110
663,288
548,474
505,648
575,460
618,343
1108,545
300,787
415,213
281,610
617,207
937,489
444,369
584,336
